124
200
160	1
159	3
158	1
157	3
156	3
155	5
153	3
152	3
151	2
150	1
149	3
148	2
147	3
146	2
145	2
144	2
143	3
142	4
139	3
138	2
137	2
136	3
135	2
134	1
133	3
132	2
131	2
130	2
129	2
128	2
127	2
126	3
125	1
124	2
123	2
122	2
121	3
120	2
119	1
118	4
117	5
116	2
115	2
114	4
113	2
112	3
111	2
110	1
109	2
108	2
107	3
106	1
105	4
104	1
103	1
102	3
101	2
99	1
97	2
96	3
95	3
94	1
92	3
91	2
90	1
89	5
88	3
86	1
85	4
84	2
83	2
82	1
81	1
80	1
79	1
78	2
75	2
73	1
72	1
71	2
70	4
68	3
67	1
66	3
65	1
64	1
63	5
62	2
61	4
60	3
59	4
58	6
57	2
56	3
55	1
54	3
53	2
52	2
50	6
48	3
47	1
46	2
45	4
44	7
43	3
41	4
40	2
39	3
38	1
37	1
36	1
35	1
33	1
31	3
30	2
29	1
28	2
27	5
26	2
25	4
24	4
23	2
22	4
21	2
